(set-option :produce-models true); benchmark generated from python API
(set-info :status unknown)
(declare-fun l_1_0_9 () Real)
(declare-fun l_1_0_8 () Real)
(declare-fun l_1_0_7 () Real)
(declare-fun l_1_0_6 () Real)
(declare-fun l_1_0_5 () Real)
(declare-fun l_1_0_4 () Real)
(declare-fun l_1_0_3 () Real)
(declare-fun l_1_0_2 () Real)
(declare-fun l_1_0_1 () Real)
(declare-fun _a_0_ () Real)
(declare-fun l_1_0_13 () Real)
(declare-fun l_1_0_11 () Real)
(declare-fun l_1_0_12 () Real)
(declare-fun l_1_0_10 () Real)
(declare-fun _a_1_ () Real)
(declare-fun l_1_0_14 () Real)
(declare-fun _a_2_ () Real)
(declare-fun _a_3_ () Real)
(declare-fun l_1_1_8 () Real)
(declare-fun l_1_1_7 () Real)
(declare-fun l_1_1_5 () Real)
(declare-fun l_1_1_4 () Real)
(declare-fun l_1_1_3 () Real)
(declare-fun l_1_1_2 () Real)
(declare-fun l_1_1_15 () Real)
(declare-fun l_1_1_14 () Real)
(declare-fun l_1_1_12 () Real)
(declare-fun l_1_1_11 () Real)
(declare-fun l_1_1_9 () Real)
(declare-fun l_1_1_6 () Real)
(declare-fun l_1_1_13 () Real)
(declare-fun l_1_1_10 () Real)
(declare-fun l_1_1_1 () Real)
(declare-fun l_1_1_17 () Real)
(declare-fun l_1_1_16 () Real)
(declare-fun l_1_1_19 () Real)
(declare-fun l_1_1_18 () Real)
(declare-fun l_1_1_20 () Real)
(declare-fun l_1_2_9 () Real)
(declare-fun l_1_2_8 () Real)
(declare-fun l_1_2_7 () Real)
(declare-fun l_1_2_5 () Real)
(declare-fun l_1_2_4 () Real)
(declare-fun l_1_2_2 () Real)
(declare-fun l_1_2_15 () Real)
(declare-fun l_1_2_14 () Real)
(declare-fun l_1_2_12 () Real)
(declare-fun l_1_2_1 () Real)
(declare-fun l_1_2_6 () Real)
(declare-fun l_1_2_3 () Real)
(declare-fun l_1_2_13 () Real)
(declare-fun l_1_2_11 () Real)
(declare-fun l_1_2_10 () Real)
(declare-fun l_1_2_20 () Real)
(declare-fun l_1_2_19 () Real)
(declare-fun l_1_2_18 () Real)
(declare-fun l_1_2_17 () Real)
(declare-fun l_1_2_16 () Real)
(assert
 (let ((?x41 (* l_1_0_9 l_1_0_9)))
 (let ((?x1215 (* (/ 1.0 8.0) l_1_0_7)))
 (let ((?x1216 (* (/ 1.0 8.0) l_1_0_6)))
 (let ((?x50 (* (/ 1.0 64.0) l_1_0_4)))
 (let ((?x47 (- (- (- (- (- _a_0_ l_1_0_1) (* (/ 1.0 8.0) l_1_0_2)) l_1_0_3) ?x50) l_1_0_5)))
 (= (- (- (- (- ?x47 ?x1216) ?x1215) l_1_0_8) ?x41) 0.0)))))))
(assert
 (let ((?x1051 (* 2.0 l_1_0_4)))
 (let ((?x1050 (- (- _a_1_ (* (* 2.0 l_1_0_10) l_1_0_12)) (* (* 2.0 l_1_0_11) l_1_0_13))))
 (= (- ?x1050 ?x1051) 0.0))))
(assert
 (let ((?x941 (* (/ 3.0 4.0) l_1_0_4)))
 (let ((?x937 (* l_1_0_14 l_1_0_14)))
 (let ((?x938 (- (- (- _a_2_ (* l_1_0_12 l_1_0_12)) (* l_1_0_13 l_1_0_13)) ?x937)))
 (= (+ (+ (- (+ ?x938 l_1_0_2) ?x941) l_1_0_6) l_1_0_7) 0.0)))))
(assert
 (let ((?x941 (* (/ 3.0 4.0) l_1_0_4)))
 (let ((?x868 (+ (- (- _a_3_ (* l_1_0_10 l_1_0_10)) (* l_1_0_11 l_1_0_11)) l_1_0_2)))
 (= (+ (+ (- ?x868 ?x941) l_1_0_6) l_1_0_7) 0.0))))
(assert
 (let ((?x796 (* 1.0 l_1_0_7)))
 (let ((?x794 (* 1.0 l_1_0_6)))
 (let ((?x887 (* (/ 1.0 4.0) l_1_0_4)))
 (let ((?x795 (- (- (- (* (* (- 2.0) l_1_0_12) l_1_0_9) (* 1.0 l_1_0_2)) ?x887) ?x794)))
 (= (- ?x795 ?x796) 0.0))))))
(assert
 (let ((?x796 (* 1.0 l_1_0_7)))
 (let ((?x794 (* 1.0 l_1_0_6)))
 (let ((?x887 (* (/ 1.0 4.0) l_1_0_4)))
 (let ((?x822 (- (- (- (* (* (- 2.0) l_1_0_10) l_1_0_9) (* 1.0 l_1_0_2)) ?x887) ?x794)))
 (= (- ?x822 ?x796) 0.0))))))
(assert
 (= (- l_1_0_4) 0.0))
(assert
 (let ((?x1051 (* 2.0 l_1_0_4)))
 (= ?x1051 0.0)))
(assert
 (let ((?x1001 (* (- 2.0) l_1_0_4)))
 (= ?x1001 0.0)))
(assert
 (let ((?x1051 (* 2.0 l_1_0_4)))
 (= ?x1051 0.0)))
(assert
 (let ((?x1051 (* 2.0 l_1_0_4)))
 (= ?x1051 0.0)))
(assert
 (= (- l_1_0_4) 0.0))
(assert
 (let ((?x1051 (* 2.0 l_1_0_4)))
 (= ?x1051 0.0)))
(assert
 (>= l_1_0_1 0.0))
(assert
 (>= l_1_0_2 0.0))
(assert
 (>= l_1_0_3 0.0))
(assert
 (>= l_1_0_4 0.0))
(assert
 (>= l_1_0_5 0.0))
(assert
 (>= l_1_0_6 0.0))
(assert
 (>= l_1_0_7 0.0))
(assert
 (>= l_1_0_8 0.0))
(assert
 (>= l_1_0_9 0.0))
(assert
 (>= l_1_0_11 0.0))
(assert
 (>= l_1_0_14 0.0))
(assert
 (let ((?x727 (* l_1_1_15 l_1_1_15)))
 (let ((?x540 (* _a_0_ l_1_1_9)))
 (let ((?x24 (* _a_0_ l_1_1_13)))
 (let ((?x539 (+ (- (- (* (* 1.0 _a_0_) l_1_1_1) (* _a_0_ l_1_1_10)) ?x24) (* (* 1.0 _a_0_) l_1_1_6))))
 (let ((?x726 (- (- (- (- ?x539 ?x540) (* (* l_1_1_11 _a_0_) _a_0_)) l_1_1_12) l_1_1_14)))
 (let ((?x695 (+ (+ (- (- (- ?x726 ?x727) l_1_1_2) l_1_1_3) (* 1.0 l_1_1_4)) (* 1.0 l_1_1_5))))
 (= (+ (+ (- ?x695 (* 1.0 l_1_1_7)) (* 1.0 l_1_1_8)) 4.0) 0.0))))))))
(assert
 (let ((?x501 (* l_1_1_17 l_1_1_17)))
 (let ((?x499 (* l_1_1_16 l_1_1_16)))
 (let ((?x497 (* _a_3_ l_1_1_9)))
 (let ((?x494 (* _a_3_ l_1_1_13)))
 (let ((?x492 (* _a_3_ l_1_1_10)))
 (let ((?x28 (+ (* (* (* (- 2.0) _a_0_) _a_3_) l_1_1_11) (* (* 1.0 _a_3_) l_1_1_1))))
 (let ((?x498 (- (+ (- (- ?x28 ?x492) ?x494) (* (* 1.0 _a_3_) l_1_1_6)) ?x497)))
 (= (- (- (- ?x498 ?x499) ?x501) 1.0) 0.0)))))))))
(assert
 (let ((?x381 (* _a_1_ l_1_1_9)))
 (let ((?x377 (* _a_1_ l_1_1_13)))
 (let ((?x375 (* _a_1_ l_1_1_10)))
 (let ((?x412 (+ (* (* (* (- 2.0) _a_0_) _a_1_) l_1_1_11) (* (* 1.0 _a_1_) l_1_1_1))))
 (let ((?x383 (- (+ (- (- ?x412 ?x375) ?x377) (* (* 1.0 _a_1_) l_1_1_6)) ?x381)))
 (let ((?x15 (- (- ?x383 (* (* 2.0 l_1_1_16) l_1_1_18)) (* (* 2.0 l_1_1_17) l_1_1_19))))
 (= ?x15 0.0))))))))
(assert
 (let ((?x315 (* l_1_1_20 l_1_1_20)))
 (let ((?x287 (* l_1_1_19 l_1_1_19)))
 (let ((?x285 (* l_1_1_18 l_1_1_18)))
 (let ((?x328 (* _a_2_ l_1_1_9)))
 (let ((?x337 (* _a_2_ l_1_1_13)))
 (let ((?x196 (* _a_2_ l_1_1_10)))
 (let ((?x335 (+ (* (* (* (- 2.0) _a_0_) _a_2_) l_1_1_11) (* (* 1.0 _a_2_) l_1_1_1))))
 (let ((?x284 (- (+ (- (- ?x335 ?x196) ?x337) (* (* 1.0 _a_2_) l_1_1_6)) ?x328)))
 (= (- (- (- ?x284 ?x285) ?x287) ?x315) 0.0))))))))))
(assert
 (let ((?x205 (* _a_1_ _a_1_)))
 (let ((?x208 (+ ?x205 (* (* 2.0 _a_2_) _a_3_))))
 (let ((?x57 (- l_1_1_11)))
 (= (* ?x57 ?x208) 0.0)))))
(assert
 (= (* (* (* (- 2.0) _a_1_) _a_2_) l_1_1_11) 0.0))
(assert
 (= (* (* (* (- 2.0) _a_1_) _a_3_) l_1_1_11) 0.0))
(assert
 (= (* (* (- l_1_1_11) _a_2_) _a_2_) 0.0))
(assert
 (= (* (* (- l_1_1_11) _a_3_) _a_3_) 0.0))
(assert
 (= (* (* (- 2.0) l_1_1_15) l_1_1_16) 0.0))
(assert
 (= (* (* (- 2.0) l_1_1_15) l_1_1_18) 0.0))
(assert
 (>= l_1_1_1 0.0))
(assert
 (>= l_1_1_2 0.0))
(assert
 (>= l_1_1_3 0.0))
(assert
 (>= l_1_1_4 0.0))
(assert
 (>= l_1_1_5 0.0))
(assert
 (>= l_1_1_6 0.0))
(assert
 (>= l_1_1_7 0.0))
(assert
 (>= l_1_1_8 0.0))
(assert
 (>= l_1_1_9 0.0))
(assert
 (>= l_1_1_10 0.0))
(assert
 (>= l_1_1_11 0.0))
(assert
 (>= l_1_1_12 0.0))
(assert
 (>= l_1_1_13 0.0))
(assert
 (>= l_1_1_14 0.0))
(assert
 (>= l_1_1_15 0.0))
(assert
 (>= l_1_1_17 0.0))
(assert
 (>= l_1_1_20 0.0))
(assert
 (let ((?x921 (* l_1_2_15 l_1_2_15)))
 (let ((?x895 (* _a_0_ l_1_2_6)))
 (let ((?x893 (- (- (* (- _a_0_) l_1_2_10) (* _a_0_ l_1_2_11)) (* (* 1.0 _a_0_) l_1_2_13))))
 (let ((?x909 (- (+ (- (- ?x893 (* (* 1.0 _a_0_) l_1_2_3)) ?x895) _a_0_) l_1_2_1)))
 (let ((?x931 (- (- (- (- ?x909 (* 1.0 l_1_2_12)) l_1_2_14) ?x921) (* 1.0 l_1_2_2))))
 (let ((?x1032 (- (- (- ?x931 (* 1.0 l_1_2_4)) (* 1.0 l_1_2_5)) (* (* l_1_2_7 _a_0_) _a_0_))))
 (= (- (- ?x1032 l_1_2_8) l_1_2_9) 0.0))))))))
(assert
 (let ((?x648 (* l_1_2_20 l_1_2_20)))
 (let ((?x647 (* l_1_2_19 l_1_2_19)))
 (let ((?x363 (* l_1_2_18 l_1_2_18)))
 (let ((?x1147 (* (/ 1.0 100.0) _a_3_)))
 (let ((?x1140 (* (/ 790123456790123.0 1000000000000000.0) _a_2_)))
 (let ((?x146 (* _a_2_ l_1_2_6)))
 (let ((?x306 (* _a_2_ l_1_2_11)))
 (let ((?x357 (* _a_2_ l_1_2_10)))
 (let ((?x299 (- (+ (* (* (* (- 2.0) _a_0_) _a_2_) l_1_2_7) (* (/ 888888888888889.0 10000000000000000.0) _a_1_)) ?x357)))
 (let ((?x145 (- (- (- ?x299 ?x306) (* (* 1.0 _a_2_) l_1_2_13)) (* (* 1.0 _a_2_) l_1_2_3))))
 (= (- (- (- (+ (+ (- ?x145 ?x146) ?x1140) ?x1147) ?x363) ?x647) ?x648) 0.0))))))))))))
(assert
 (let ((?x136 (* (/ 9.0 50.0) _a_3_)))
 (let ((?x139 (* (/ 493827160493827.0 5000000000000000.0) _a_2_)))
 (let ((?x847 (* (/ 198611111111111.0 250000000000000.0) _a_1_)))
 (let ((?x568 (* _a_1_ l_1_2_6)))
 (let ((?x830 (* _a_1_ l_1_2_11)))
 (let ((?x1171 (* _a_1_ l_1_2_10)))
 (let ((?x565 (- (- (- (* (* (* (- 2.0) _a_0_) _a_1_) l_1_2_7) ?x1171) ?x830) (* (* 1.0 _a_1_) l_1_2_13))))
 (let ((?x133 (- (+ (- (- ?x565 (* (* 1.0 _a_1_) l_1_2_3)) ?x568) ?x847) ?x139)))
 (let ((?x419 (- (- (+ ?x133 ?x136) (* (* 2.0 l_1_2_16) l_1_2_18)) (* (* 2.0 l_1_2_17) l_1_2_19))))
 (= ?x419 0.0)))))))))))
(assert
 (let ((?x563 (* l_1_2_17 l_1_2_17)))
 (let ((?x575 (* l_1_2_16 l_1_2_16)))
 (let ((?x679 (* (/ 81.0 100.0) _a_3_)))
 (let ((?x684 (* _a_3_ l_1_2_6)))
 (let ((?x1075 (* _a_3_ l_1_2_11)))
 (let ((?x1077 (* _a_3_ l_1_2_10)))
 (let ((?x1072 (* (/ 154320987654321.0 50000000000000000.0) _a_2_)))
 (let ((?x1074 (+ (- (* (* (* (- 2.0) _a_0_) _a_3_) l_1_2_7) (* (/ 1.0 20.0) _a_1_)) ?x1072)))
 (let ((?x683 (- (- (- (- ?x1074 ?x1077) ?x1075) (* (* 1.0 _a_3_) l_1_2_13)) (* (* 1.0 _a_3_) l_1_2_3))))
 (= (- (- (+ (- ?x683 ?x684) ?x679) ?x575) ?x563) 0.0)))))))))))
(assert
 (let ((?x205 (* _a_1_ _a_1_)))
 (let ((?x208 (+ ?x205 (* (* 2.0 _a_2_) _a_3_))))
 (let ((?x661 (- l_1_2_7)))
 (= (* ?x661 ?x208) 0.0)))))
(assert
 (= (* (* (* (- 2.0) _a_1_) _a_2_) l_1_2_7) 0.0))
(assert
 (= (* (* (* (- 2.0) _a_1_) _a_3_) l_1_2_7) 0.0))
(assert
 (= (* (* (- l_1_2_7) _a_2_) _a_2_) 0.0))
(assert
 (= (* (* (- l_1_2_7) _a_3_) _a_3_) 0.0))
(assert
 (= (* (* (- 2.0) l_1_2_15) l_1_2_16) 0.0))
(assert
 (= (* (* (- 2.0) l_1_2_15) l_1_2_18) 0.0))
(assert
 (>= l_1_2_1 0.0))
(assert
 (>= l_1_2_2 0.0))
(assert
 (>= l_1_2_3 0.0))
(assert
 (>= l_1_2_4 0.0))
(assert
 (>= l_1_2_5 0.0))
(assert
 (>= l_1_2_6 0.0))
(assert
 (>= l_1_2_7 0.0))
(assert
 (>= l_1_2_8 0.0))
(assert
 (>= l_1_2_9 0.0))
(assert
 (>= l_1_2_10 0.0))
(assert
 (>= l_1_2_11 0.0))
(assert
 (>= l_1_2_12 0.0))
(assert
 (>= l_1_2_13 0.0))
(assert
 (>= l_1_2_14 0.0))
(assert
 (>= l_1_2_15 0.0))
(assert
 (>= l_1_2_17 0.0))
(assert
 (>= l_1_2_20 0.0))
(check-sat)
(get-model)